37 38
27
3 3 19 6
3 4 7 34
3 5 11 9
3 6 0 11
3 7 34 0
3 8 4 30
3 9 7 25
3 11 0 0
3 12 19 9
3 13 34 25
3 14 11 14
3 17 19 21
3 18 34 7
3 21 0 17
4 3 15 6
4 4 11 5
4 5 15 33
4 6 3 24
4 10 10 28
4 22 7 3
4 24 3 0
5 3 7 0
5 4 12 1
5 6 17 0
5 10 14 23
5 14 14 9
12 37 22 1
